provided_instances/project.4.dat
n = 9;


p =
  [
    [ 72	5	18	2	0	1	1	0	1	]
    [ 71	19	6	0	3	1	0	0	0	]
    [ 54	27	15	1	0	2	1	0	0	]
    [ 12	88	0	0	0	0	0	0	0	]
    [ 28	46	3	21	2	0	0	0	0	]
    [ 90	4	6	0	0	0	0	0	0	]
    [ 93	5	2	0	0	0	0	0	0	]
    [ 14	84	0	0	1	1	0	0	0	]
    [ 73	10	12	1	3	0	1	0	0	]
  ];

