instances/project.4.sol
OBJECTIVE: 226

Slot 1
5 white, 1 black
3 white, 2 black
8 white, 4 black
9 white, 6 black

Slot 2
1 white, 6 black
2 white, 7 black
5 white, 3 black
9 white, 8 black

Slot 3
2 white, 8 black
7 white, 3 black
4 white, 9 black
6 white, 5 black

Slot 4
2 white, 1 black
3 white, 9 black
7 white, 4 black
8 white, 6 black

Slot 5
1 white, 9 black
3 white, 8 black
6 white, 4 black
7 white, 5 black

Slot 6
1 white, 8 black
4 white, 2 black
9 white, 5 black
7 white, 6 black

Slot 7
3 white, 1 black
6 white, 2 black
5 white, 4 black
8 white, 7 black

Slot 8
1 white, 7 black
2 white, 9 black
4 white, 3 black
8 white, 5 black

Slot 9
4 white, 1 black
5 white, 2 black
6 white, 3 black
9 white, 7 black




